c colouring generated by benchmark framework
p edge 385 19095
v 1 38
v 2 21
v 3 0
v 4 1
v 5 2
v 6 6
v 7 7
v 8 12
v 9 11
v 10 38
v 11 3
v 12 17
v 13 34
v 14 41
v 15 8
v 16 37
v 17 14
v 18 33
v 19 39
v 20 35
v 21 14
v 22 0
v 23 23
v 24 1
v 25 4
v 26 28
v 27 17
v 28 27
v 29 23
v 30 6
v 31 14
v 32 17
v 33 2
v 34 15
v 35 0
v 36 13
v 37 1
v 38 36
v 39 2
v 40 15
v 41 4
v 42 30
v 43 28
v 44 0
v 45 4
v 46 12
v 47 25
v 48 8
v 49 4
v 50 9
v 51 33
v 52 8
v 53 5
v 54 31
v 55 16
v 56 35
v 57 10
v 58 9
v 59 3
v 60 18
v 61 12
v 62 40
v 63 15
v 64 7
v 65 23
v 66 39
v 67 35
v 68 33
v 69 20
v 70 19
v 71 10
v 72 16
v 73 39
v 74 11
v 75 10
v 76 32
v 77 12
v 78 16
v 79 15
v 80 13
v 81 30
v 82 38
v 83 1
v 84 11
v 85 13
v 86 0
v 87 10
v 88 22
v 89 7
v 90 26
v 91 19
v 92 37
v 93 14
v 94 11
v 95 16
v 96 3
v 97 1
v 98 15
v 99 28
v 100 38
v 101 9
v 102 42
v 103 8
v 104 3
v 105 0
v 106 22
v 107 4
v 108 3
v 109 22
v 110 16
v 111 26
v 112 20
v 113 37
v 114 7
v 115 13
v 116 1
v 117 15
v 118 1
v 119 6
v 120 0
v 121 26
v 122 3
v 123 22
v 124 6
v 125 2
v 126 17
v 127 8
v 128 4
v 129 21
v 130 15
v 131 20
v 132 14
v 133 5
v 134 13
v 135 10
v 136 33
v 137 19
v 138 28
v 139 10
v 140 41
v 141 17
v 142 15
v 143 4
v 144 37
v 145 16
v 146 0
v 147 13
v 148 3
v 149 39
v 150 21
v 151 19
v 152 6
v 153 22
v 154 8
v 155 2
v 156 2
v 157 24
v 158 16
v 159 40
v 160 16
v 161 4
v 162 28
v 163 19
v 164 27
v 165 28
v 166 9
v 167 15
v 168 2
v 169 21
v 170 11
v 171 14
v 172 26
v 173 12
v 174 4
v 175 23
v 176 0
v 177 9
v 178 7
v 179 5
v 180 20
v 181 5
v 182 10
v 183 6
v 184 18
v 185 17
v 186 32
v 187 5
v 188 30
v 189 10
v 190 17
v 191 2
v 192 15
v 193 15
v 194 29
v 195 39
v 196 10
v 197 14
v 198 0
v 199 14
v 200 4
v 201 7
v 202 4
v 203 11
v 204 7
v 205 18
v 206 12
v 207 26
v 208 25
v 209 17
v 210 4
v 211 7
v 212 26
v 213 37
v 214 1
v 215 28
v 216 24
v 217 19
v 218 32
v 219 12
v 220 1
v 221 40
v 222 10
v 223 32
v 224 1
v 225 35
v 226 2
v 227 16
v 228 7
v 229 11
v 230 27
v 231 9
v 232 13
v 233 27
v 234 31
v 235 9
v 236 19
v 237 30
v 238 17
v 239 18
v 240 2
v 241 28
v 242 40
v 243 14
v 244 31
v 245 13
v 246 20
v 247 3
v 248 25
v 249 8
v 250 0
v 251 36
v 252 23
v 253 5
v 254 4
v 255 40
v 256 0
v 257 3
v 258 20
v 259 4
v 260 16
v 261 19
v 262 26
v 263 18
v 264 24
v 265 34
v 266 0
v 267 32
v 268 27
v 269 25
v 270 28
v 271 28
v 272 4
v 273 36
v 274 6
v 275 1
v 276 11
v 277 1
v 278 4
v 279 5
v 280 21
v 281 42
v 282 11
v 283 15
v 284 27
v 285 19
v 286 0
v 287 3
v 288 18
v 289 32
v 290 25
v 291 9
v 292 26
v 293 22
v 294 33
v 295 12
v 296 32
v 297 6
v 298 4
v 299 28
v 300 35
v 301 0
v 302 0
v 303 13
v 304 8
v 305 15
v 306 28
v 307 16
v 308 2
v 309 10
v 310 4
v 311 12
v 312 26
v 313 12
v 314 27
v 315 7
v 316 24
v 317 9
v 318 6
v 319 12
v 320 4
v 321 19
v 322 22
v 323 11
v 324 7
v 325 1
v 326 10
v 327 0
v 328 33
v 329 11
v 330 7
v 331 9
v 332 4
v 333 20
v 334 23
v 335 4
v 336 29
v 337 28
v 338 24
v 339 41
v 340 6
v 341 9
v 342 3
v 343 18
v 344 13
v 345 3
v 346 27
v 347 30
v 348 9
v 349 18
v 350 4
v 351 5
v 352 29
v 353 9
v 354 23
v 355 0
v 356 42
v 357 2
v 358 7
v 359 34
v 360 39
v 361 40
v 362 1
v 363 15
v 364 0
v 365 13
v 366 3
v 367 21
v 368 25
v 369 34
v 370 4
v 371 29
v 372 5
v 373 1
v 374 24
v 375 38
v 376 20
v 377 25
v 378 8
v 379 10
v 380 6
v 381 1
v 382 16
v 383 28
v 384 18
v 385 5
